148
1000000
516937
158377
497590
575847
156661
738249
214237
134130
229313
255374
237046
125198
292242
149955
53035
32175
263402
145637
642351
266614
661125
17308
232410
21131
260960
497553
527218
424153
182706
184074
204438
81995
91837
369846
739040
156390
398003
434210
470079
6300
116138
105436
535870
160028
386810
466827
430137
270031
597240
696739
13066
444571
392254
636198
516966
52106
96308
476905
15074
285744
176210
422084
402760
8294
24501
166360
59612
89651
107466
530800
71028
690092
136208
163570
363802
99367
733386
322403
532167
32692
492082
98309
303261
424860
272958
717005
205527
346379
16056
575140
718693
384863
173227
281307
397245
415835
592912
226575
440090
27154
309908
104968
603000
508729
469200
588931
431850
231474
282995
431258
641272
60973
287227
483639
261751
512678
229368
602755
75473
548425
110140
4692
6768
87410
23963
590187
483034
127901
360045
145102
223711
263821
95066
452
22229
627788
657939
452759
556450
341593
86515
305753
16496
342831
188049
114479
391557
125871
